
n_res = 8;
rcap = [89, 91, 74, 87, 852, 810, 890, 887];
rtype = [1, 1, 1, 1, 2, 2, 2, 2];
n_tasks = 50;
modes =  [{1, 2, 3, 4, 5, 6}, {7, 8, 9, 10, 11, 12}, {13, 14, 15, 16, 17, 18}, {19, 20, 21, 22, 23, 24}, {25, 26, 27, 28, 29, 30}, {31, 32, 33, 34, 35, 36}, {37, 38, 39, 40, 41, 42}, {43, 44, 45, 46, 47, 48}, {49, 50, 51, 52, 53, 54}, {55, 56, 57, 58, 59, 60}, {61, 62, 63, 64, 65, 66}, {67, 68, 69, 70, 71, 72}, {73, 74, 75, 76, 77, 78}, {79, 80, 81, 82, 83, 84}, {85, 86, 87, 88, 89, 90}, {91, 92, 93, 94, 95, 96}, {97, 98, 99, 100, 101, 102}, {103, 104, 105, 106, 107, 108}, {109, 110, 111, 112, 113, 114}, {115, 116, 117, 118, 119, 120}, {121, 122, 123, 124, 125, 126}, {127, 128, 129, 130, 131, 132}, {133, 134, 135, 136, 137, 138}, {139, 140, 141, 142, 143, 144}, {145, 146, 147, 148, 149, 150}, {151, 152, 153, 154, 155, 156}, {157, 158, 159, 160, 161, 162}, {163, 164, 165, 166, 167, 168}, {169, 170, 171, 172, 173, 174}, {175, 176, 177, 178, 179, 180}, {181, 182, 183, 184, 185, 186}, {187, 188, 189, 190, 191, 192}, {193, 194, 195, 196, 197, 198}, {199, 200, 201, 202, 203, 204}, {205, 206, 207, 208, 209, 210}, {211, 212, 213, 214, 215, 216}, {217, 218, 219, 220, 221, 222}, {223, 224, 225, 226, 227, 228}, {229, 230, 231, 232, 233, 234}, {235, 236, 237, 238, 239, 240}, {241, 242, 243, 244, 245, 246}, {247, 248, 249, 250, 251, 252}, {253, 254, 255, 256, 257, 258}, {259, 260, 261, 262, 263, 264}, {265, 266, 267, 268, 269, 270}, {271, 272, 273, 274, 275, 276}, {277, 278, 279, 280, 281, 282}, {283, 284, 285, 286, 287, 288}, {289, 290, 291, 292, 293, 294}, {295, 296, 297, 298, 299, 300}];
succ =  [{28, 17, 16, 15, 14, 7, 6, 3}, {35, 26, 25, 24, 16, 15, 12}, {32, 29, 27, 24, 12, 10}, {35, 26, 25, 16, 15, 12}, {35, 29, 24, 23, 18, 11}, {27, 26, 25, 12}, {49, 32, 29, 26, 25, 24, 19}, {35, 31, 28, 15}, {49, 35, 27, 25, 19}, {35, 31, 25, 18}, {49, 40, 32, 26, 19}, {49, 31, 23, 19}, {50, 49, 47, 31, 25, 22}, {49, 35, 29, 19}, {49, 29, 19}, {49, 32, 19}, {50, 49, 48, 40, 38, 35, 33, 26}, {50, 49, 47, 22}, {50, 47, 22}, {49, 47, 22}, {49, 48, 46, 43, 40, 39, 38, 37, 35, 34}, {48, 39, 38, 37, 34, 30}, {40, 39, 38, 37, 34, 30}, {48, 47, 39, 38, 37, 36, 33}, {46, 43, 40, 37, 36, 34}, {47, 46, 44, 43, 39, 37, 36}, {50, 46, 43, 41, 37, 34}, {47, 46, 40, 36, 34}, {46, 43, 42, 38, 36}, {46, 42, 36, 33}, {44, 37, 33}, {46, 42, 33}, {45, 43, 41}, {45, 44, 42}, {47, 36}, {41}, {42}, {44}, {42}, {41}, {}, {}, {}, {}, {}, {}, {}, {}, {}, {}];
n_opt = 300;
dur = [1, 6, 9, 11, 12, 30, 4, 7, 8, 21, 25, 27, 4, 11, 17, 18, 19, 20, 1, 3, 13, 23, 28, 29, 1, 2, 20, 23, 24, 25, 9, 19, 22, 23, 24, 25, 4, 5, 7, 8, 24, 25, 6, 7, 18, 21, 22, 26, 3, 11, 12, 17, 19, 22, 10, 13, 17, 18, 27, 29, 2, 12, 15, 17, 18, 30, 21, 22, 27, 28, 29, 30, 2, 5, 10, 11, 22, 28, 1, 2, 15, 16, 20, 29, 2, 13, 18, 22, 29, 30, 7, 14, 20, 25, 28, 30, 3, 4, 7, 9, 18, 20, 11, 12, 14, 16, 28, 29, 2, 5, 13, 17, 19, 20, 2, 5, 11, 16, 19, 28, 5, 6, 16, 17, 18, 25, 13, 14, 16, 17, 18, 22, 1, 4, 8, 10, 20, 21, 2, 10, 11, 12, 16, 28, 14, 15, 17, 18, 19, 30, 2, 8, 19, 20, 22, 23, 1, 5, 10, 26, 27, 30, 1, 14, 25, 27, 28, 30, 4, 6, 7, 22, 25, 30, 2, 4, 10, 18, 23, 30, 6, 8, 9, 10, 11, 23, 7, 8, 12, 13, 14, 15, 13, 14, 19, 20, 28, 29, 10, 12, 22, 23, 24, 25, 1, 6, 12, 19, 20, 24, 7, 9, 10, 14, 23, 30, 2, 6, 7, 16, 22, 23, 3, 5, 16, 18, 25, 28, 3, 11, 18, 24, 29, 30, 3, 6, 11, 12, 16, 18, 6, 8, 9, 12, 19, 20, 2, 3, 4, 7, 18, 25, 1, 16, 17, 24, 27, 28, 5, 10, 11, 12, 19, 28, 11, 16, 21, 23, 25, 26, 4, 5, 7, 18, 22, 30, 5, 9, 19, 25, 28, 30, 6, 13, 16, 22, 24, 28, 3, 7, 8, 12, 20, 28, 6, 7, 8, 16, 20, 24];
rreq = [|11, 9, 8, 7, 4, 3, 28, 24, 24, 21, 19, 15, 25, 19, 19, 16, 11, 6, 27, 26, 25, 25, 23, 22, 20, 20, 20, 20, 20, 20, 25, 24, 16, 14, 7, 5, 28, 25, 24, 23, 19, 19, 25, 22, 22, 20, 18, 18, 21, 20, 16, 13, 5, 1, 23, 19, 15, 13, 9, 6, 27, 24, 19, 17, 15, 12, 22, 22, 21, 19, 18, 17, 22, 19, 19, 14, 11, 7, 22, 18, 13, 12, 6, 5, 29, 26, 26, 23, 23, 21, 24, 20, 16, 13, 10, 6, 8, 7, 7, 6, 5, 4, 13, 12, 9, 9, 6, 4, 9, 8, 7, 7, 6, 6, 23, 22, 22, 22, 21, 21, 18, 17, 17, 16, 15, 15, 23, 20, 18, 15, 15, 13, 17, 17, 16, 14, 13, 13, 28, 25, 24, 22, 21, 21, 28, 25, 25, 23, 21, 20, 23, 21, 21, 19, 18, 17, 29, 29, 29, 29, 29, 29, 24, 23, 17, 13, 12, 8, 16, 16, 14, 12, 11, 11, 28, 26, 24, 23, 22, 21, 13, 11, 10, 8, 8, 6, 27, 22, 20, 18, 13, 13, 12, 11, 11, 11, 10, 9, 28, 24, 17, 15, 8, 7, 22, 21, 21, 21, 21, 21, 22, 19, 17, 15, 12, 10, 18, 17, 17, 16, 16, 15, 22, 19, 18, 14, 13, 10, 27, 23, 21, 20, 19, 17, 8, 6, 5, 5, 4, 3, 20, 15, 12, 10, 6, 4, 10, 9, 8, 6, 4, 3, 7, 7, 7, 7, 6, 6, 15, 13, 9, 7, 5, 3, 28, 28, 28, 27, 27, 26, 29, 24, 18, 12, 8, 1, 23, 23, 22, 21, 19, 19, 25, 22, 22, 18, 17, 13, 9, 7, 7, 7, 5, 5, 15, 14, 11, 8, 5, 4
 |8, 7, 6, 5, 5, 4, 12, 10, 9, 7, 5, 4, 27, 27, 26, 24, 23, 23, 12, 12, 11, 10, 9, 9, 15, 15, 15, 15, 14, 14, 25, 23, 19, 17, 16, 15, 30, 29, 29, 29, 28, 28, 15, 14, 13, 12, 12, 11, 28, 26, 24, 22, 22, 20, 18, 18, 18, 18, 18, 18, 26, 25, 22, 18, 10, 10, 28, 22, 18, 16, 13, 9, 27, 26, 25, 24, 23, 22, 8, 7, 7, 7, 7, 7, 21, 18, 17, 14, 13, 12, 15, 11, 9, 8, 6, 4, 29, 28, 28, 28, 27, 27, 23, 22, 18, 17, 14, 12, 30, 29, 28, 27, 26, 26, 28, 26, 25, 24, 21, 21, 20, 20, 19, 19, 18, 17, 29, 21, 17, 10, 6, 3, 26, 26, 23, 22, 19, 18, 6, 5, 5, 4, 3, 2, 26, 22, 19, 16, 15, 13, 23, 23, 22, 21, 20, 19, 19, 16, 13, 8, 5, 1, 2, 2, 2, 2, 2, 2, 26, 23, 22, 19, 17, 17, 10, 10, 10, 9, 9, 9, 12, 8, 7, 6, 5, 2, 30, 26, 25, 20, 18, 17, 20, 18, 17, 17, 16, 15, 27, 26, 23, 23, 21, 20, 21, 21, 21, 21, 20, 20, 25, 20, 15, 10, 6, 3, 17, 14, 13, 11, 8, 4, 23, 19, 15, 12, 9, 6, 19, 19, 18, 16, 16, 15, 10, 8, 7, 6, 5, 3, 13, 12, 10, 10, 8, 6, 28, 23, 20, 17, 16, 12, 14, 12, 9, 7, 5, 2, 21, 19, 18, 16, 13, 9, 23, 22, 22, 20, 20, 19, 21, 21, 17, 13, 10, 6, 18, 14, 10, 9, 4, 4, 20, 17, 17, 16, 14, 13, 25, 22, 19, 18, 12, 11, 26, 26, 24, 23, 21, 18
 |5, 3, 3, 3, 2, 1, 5, 5, 5, 4, 4, 3, 9, 9, 6, 4, 2, 1, 19, 17, 16, 14, 13, 12, 26, 26, 26, 25, 25, 25, 21, 21, 18, 18, 16, 14, 16, 13, 11, 10, 10, 7, 19, 19, 19, 18, 17, 17, 25, 22, 19, 14, 11, 7, 16, 15, 15, 14, 13, 13, 24, 23, 22, 21, 21, 19, 28, 25, 23, 22, 20, 20, 23, 22, 22, 21, 21, 20, 9, 9, 8, 7, 6, 6, 24, 22, 19, 17, 14, 7, 11, 9, 7, 5, 3, 2, 29, 29, 29, 28, 28, 28, 13, 10, 9, 5, 5, 3, 8, 8, 8, 8, 8, 8, 16, 15, 15, 14, 14, 14, 14, 11, 10, 8, 8, 7, 22, 22, 22, 22, 22, 22, 24, 17, 14, 9, 9, 1, 21, 19, 15, 11, 5, 4, 22, 21, 21, 18, 18, 16, 18, 18, 18, 17, 17, 17, 22, 17, 15, 12, 12, 9, 16, 15, 12, 12, 8, 6, 7, 7, 5, 5, 4, 2, 8, 7, 5, 4, 3, 2, 21, 19, 17, 15, 14, 11, 22, 21, 20, 20, 17, 17, 9, 8, 7, 6, 5, 5, 15, 14, 14, 13, 13, 13, 6, 6, 6, 5, 5, 5, 28, 27, 27, 27, 27, 27, 19, 16, 12, 12, 6, 2, 25, 25, 23, 23, 21, 20, 25, 20, 19, 13, 8, 6, 26, 25, 22, 21, 20, 18, 24, 23, 21, 21, 20, 17, 28, 27, 27, 27, 27, 27, 24, 23, 21, 19, 17, 16, 4, 4, 4, 4, 4, 4, 22, 19, 19, 18, 17, 16, 18, 18, 18, 18, 17, 17, 17, 17, 16, 16, 16, 15, 25, 23, 21, 19, 19, 17, 22, 22, 21, 21, 20, 19, 25, 20, 17, 12, 11, 8
 |8, 7, 7, 7, 6, 6, 16, 16, 13, 13, 9, 8, 23, 20, 18, 17, 16, 13, 17, 16, 11, 7, 7, 4, 20, 18, 17, 17, 14, 13, 26, 23, 22, 17, 14, 13, 27, 27, 25, 22, 19, 17, 19, 15, 13, 12, 10, 7, 29, 22, 19, 16, 12, 10, 17, 14, 11, 9, 7, 2, 13, 13, 12, 12, 11, 10, 15, 14, 13, 9, 7, 7, 2, 2, 2, 1, 1, 1, 29, 29, 29, 28, 27, 27, 14, 14, 11, 9, 6, 6, 10, 8, 6, 5, 4, 3, 20, 15, 12, 12, 8, 1, 9, 9, 8, 8, 7, 7, 22, 22, 22, 22, 22, 22, 30, 26, 26, 24, 21, 20, 25, 23, 15, 11, 11, 6, 20, 16, 13, 12, 7, 4, 9, 8, 8, 7, 7, 6, 18, 17, 17, 16, 15, 15, 29, 19, 15, 12, 6, 1, 18, 17, 16, 14, 14, 13, 20, 16, 15, 13, 9, 7, 18, 16, 14, 13, 10, 9, 29, 26, 25, 24, 22, 19, 18, 12, 10, 8, 7, 3, 23, 19, 17, 16, 14, 13, 18, 14, 14, 11, 8, 5, 22, 17, 15, 11, 8, 5, 18, 16, 14, 13, 12, 10, 19, 18, 18, 18, 18, 18, 24, 16, 16, 11, 7, 2, 19, 17, 14, 12, 12, 10, 22, 22, 22, 22, 22, 22, 20, 15, 14, 8, 5, 5, 23, 23, 22, 22, 21, 20, 27, 27, 26, 25, 24, 24, 6, 6, 6, 6, 6, 6, 16, 13, 12, 6, 3, 3, 14, 14, 14, 14, 14, 14, 21, 15, 13, 10, 10, 6, 15, 13, 13, 13, 11, 11, 18, 15, 11, 8, 5, 4, 12, 10, 10, 9, 7, 7, 11, 10, 10, 9, 9, 9, 24, 23, 23, 22, 22, 21
 |27, 24, 17, 14, 12, 6, 6, 6, 5, 5, 4, 4, 27, 20, 20, 15, 12, 5, 20, 19, 19, 19, 18, 18, 26, 22, 20, 16, 12, 10, 23, 20, 18, 16, 15, 13, 21, 18, 15, 12, 9, 6, 19, 18, 18, 18, 17, 16, 12, 12, 11, 10, 9, 9, 23, 22, 21, 21, 20, 19, 30, 29, 27, 27, 26, 25, 29, 26, 23, 19, 19, 15, 26, 22, 19, 17, 15, 12, 19, 15, 14, 12, 11, 9, 26, 24, 23, 21, 18, 16, 14, 12, 11, 8, 8, 5, 22, 20, 20, 17, 16, 14, 21, 21, 17, 13, 9, 3, 21, 20, 16, 11, 10, 4, 24, 24, 24, 23, 23, 23, 21, 17, 14, 10, 7, 3, 22, 21, 18, 12, 6, 4, 7, 5, 5, 4, 2, 2, 27, 26, 25, 25, 24, 24, 13, 12, 11, 9, 8, 7, 13, 12, 11, 10, 7, 7, 11, 8, 8, 5, 3, 3, 24, 24, 24, 23, 22, 22, 11, 10, 9, 6, 5, 4, 20, 18, 16, 15, 13, 12, 11, 8, 8, 6, 5, 3, 30, 25, 17, 12, 12, 5, 9, 7, 5, 5, 4, 3, 27, 24, 20, 18, 15, 15, 28, 26, 24, 21, 20, 18, 10, 8, 6, 5, 4, 2, 9, 8, 6, 5, 4, 4, 17, 14, 9, 9, 5, 2, 15, 14, 11, 11, 8, 7, 27, 26, 26, 26, 25, 25, 23, 22, 21, 20, 18, 18, 25, 24, 23, 21, 20, 19, 10, 9, 6, 6, 5, 3, 19, 17, 16, 15, 14, 13, 11, 9, 9, 7, 5, 5, 25, 23, 19, 12, 11, 3, 21, 19, 16, 15, 15, 12, 14, 12, 12, 11, 10, 10, 27, 25, 20, 19, 15, 13, 6, 4, 4, 3, 2, 2
 |27, 25, 24, 23, 20, 19, 23, 21, 20, 17, 15, 15, 14, 14, 12, 12, 11, 10, 23, 22, 21, 19, 18, 17, 11, 10, 10, 10, 10, 10, 16, 14, 14, 14, 13, 12, 26, 24, 22, 21, 20, 19, 25, 22, 15, 10, 6, 4, 9, 8, 6, 4, 3, 1, 19, 14, 13, 11, 6, 6, 14, 13, 12, 11, 11, 10, 19, 19, 19, 19, 19, 19, 15, 15, 12, 9, 7, 6, 28, 24, 23, 20, 14, 14, 20, 20, 16, 8, 8, 4, 24, 22, 16, 14, 9, 6, 14, 13, 13, 13, 13, 13, 22, 21, 19, 15, 12, 7, 15, 13, 12, 11, 9, 8, 28, 25, 24, 23, 21, 21, 18, 18, 14, 13, 10, 10, 27, 27, 26, 24, 22, 20, 27, 24, 21, 19, 16, 11, 3, 3, 3, 3, 3, 3, 27, 25, 24, 23, 21, 20, 17, 14, 12, 9, 9, 7, 5, 4, 4, 4, 4, 4, 23, 22, 22, 21, 20, 20, 29, 20, 15, 13, 11, 6, 19, 14, 13, 12, 7, 5, 8, 6, 5, 5, 4, 2, 4, 4, 4, 4, 4, 4, 27, 23, 20, 16, 10, 8, 11, 10, 10, 9, 9, 8, 19, 16, 11, 9, 8, 1, 19, 15, 15, 11, 7, 7, 18, 15, 12, 10, 7, 2, 14, 12, 12, 10, 8, 8, 22, 20, 17, 14, 11, 10, 11, 8, 7, 5, 5, 3, 11, 10, 10, 10, 9, 9, 24, 24, 21, 18, 14, 11, 30, 25, 21, 19, 14, 12, 19, 18, 16, 14, 14, 13, 2, 1, 1, 1, 1, 1, 19, 18, 17, 17, 16, 16, 19, 19, 17, 14, 12, 11, 27, 26, 24, 23, 22, 21, 12, 11, 11, 11, 11, 11, 13, 11, 11, 11, 10, 9
 |21, 17, 13, 13, 10, 7, 29, 27, 24, 23, 22, 20, 7, 6, 5, 4, 2, 2, 27, 26, 25, 24, 24, 23, 29, 20, 16, 11, 9, 2, 11, 9, 8, 5, 4, 3, 17, 14, 14, 13, 11, 11, 21, 21, 21, 21, 21, 21, 27, 24, 24, 22, 18, 18, 21, 21, 20, 20, 20, 19, 12, 11, 10, 8, 7, 7, 27, 24, 22, 17, 14, 8, 16, 13, 12, 7, 4, 2, 15, 15, 15, 14, 14, 14, 28, 24, 22, 19, 16, 14, 18, 17, 16, 15, 14, 14, 16, 16, 14, 14, 13, 11, 28, 26, 26, 25, 25, 24, 11, 10, 9, 9, 9, 8, 27, 27, 23, 21, 19, 17, 9, 8, 8, 7, 6, 6, 27, 25, 20, 18, 18, 13, 13, 12, 10, 10, 7, 6, 5, 4, 3, 3, 2, 2, 14, 13, 12, 11, 11, 10, 23, 21, 19, 17, 15, 14, 27, 24, 24, 21, 18, 15, 8, 7, 7, 7, 6, 6, 17, 15, 14, 10, 6, 3, 23, 22, 22, 22, 22, 22, 20, 18, 14, 9, 5, 4, 10, 10, 8, 5, 4, 3, 22, 22, 16, 12, 7, 6, 14, 14, 13, 11, 9, 8, 21, 18, 18, 15, 13, 12, 23, 20, 20, 14, 13, 8, 27, 26, 26, 25, 24, 24, 29, 28, 28, 28, 28, 28, 20, 17, 15, 13, 6, 3, 9, 8, 8, 8, 8, 8, 27, 24, 23, 22, 21, 19, 27, 22, 17, 12, 8, 4, 30, 29, 29, 29, 29, 29, 9, 8, 6, 6, 4, 4, 22, 19, 17, 13, 8, 8, 27, 25, 23, 22, 19, 18, 10, 7, 7, 5, 3, 1, 21, 16, 13, 12, 10, 6, 27, 26, 21, 17, 12, 10, 29, 28, 27, 25, 24, 24
 |8, 8, 8, 8, 8, 8, 20, 19, 19, 19, 18, 17, 20, 19, 16, 12, 9, 5, 27, 25, 24, 23, 22, 22, 29, 28, 28, 28, 26, 26, 19, 19, 18, 15, 15, 13, 23, 22, 21, 20, 18, 18, 14, 12, 9, 9, 7, 4, 20, 17, 16, 14, 13, 13, 27, 27, 27, 26, 26, 25, 27, 22, 19, 18, 16, 13, 27, 27, 24, 18, 18, 13, 11, 9, 8, 7, 6, 6, 28, 28, 28, 28, 28, 28, 25, 23, 20, 20, 16, 16, 12, 9, 7, 6, 5, 2, 19, 18, 17, 17, 16, 16, 25, 22, 18, 14, 9, 7, 17, 16, 16, 16, 16, 16, 15, 15, 14, 14, 13, 13, 6, 4, 4, 2, 2, 1, 28, 26, 24, 24, 21, 19, 21, 18, 13, 11, 9, 7, 21, 19, 18, 14, 13, 12, 19, 14, 14, 10, 8, 6, 1, 1, 1, 1, 1, 1, 8, 7, 5, 4, 4, 3, 21, 21, 21, 21, 21, 21, 16, 16, 16, 16, 15, 15, 25, 24, 24, 24, 23, 23, 27, 27, 27, 27, 27, 27, 22, 20, 19, 19, 18, 17, 27, 27, 23, 21, 19, 19, 14, 13, 12, 12, 10, 8, 27, 24, 19, 18, 15, 12, 15, 15, 12, 10, 9, 6, 29, 26, 26, 25, 23, 22, 29, 25, 20, 13, 11, 8, 29, 27, 26, 25, 25, 23, 13, 11, 11, 10, 9, 7, 7, 7, 7, 6, 6, 6, 29, 28, 28, 27, 26, 26, 6, 6, 6, 5, 5, 5, 11, 11, 11, 11, 11, 11, 17, 17, 17, 17, 17, 17, 22, 22, 22, 22, 21, 21, 18, 16, 14, 13, 11, 11, 17, 12, 11, 8, 3, 2, 19, 16, 12, 12, 9, 6, 11, 10, 8, 6, 6, 3|];